40 40
25 8
20 16
23 13
29 17
30 2
11 17
37 4
27 15
17 14
38 19
26 11
13 10
10 8
39 20
6 18
18 3
28 2
8 6
7 9
21 15
5 6
40 10
22 13
14 5
12 16
31 12
36 5
19 3
1 11
32 7
3 14
4 19
15 4
9 1
16 18
35 1
2 7
24 20
33 12
34 9
